p cnf 2651
-15 -226
-16 -81
-17 -84
-18 -87
-19 -90
-20 -93
-21 -96
-22 -99
-23 -263
-24 -269
-25 -275
-26 -281
-27 -287
-28 -293
-29 -299
-30 -326
-31 -345
-32 -363
-33 -373
-34 -392
-35 -411
-36 -429
-37 -439
-38 -458
-39 -477
-40 -495
-41 -505
-42 -524
-43 -543
-44 -561
-45 -571
-46 -590
-47 -609
-48 -627
-49 -637
-50 -656
-51 -675
-52 -693
-53 -703
-54 -722
-55 -741
-56 -759
-57 -769
-58 -826
-59 -832
-60 -838
-61 1
-61 -23
-1 23 61
-62 2
-62 -24
-2 24 62
-63 3
-63 -25
-3 25 63
-64 4
-64 -26
-4 26 64
-65 5
-65 -27
-5 27 65
-66 6
-66 -28
-6 28 66
-67 7
-67 -29
-7 29 67
-68 -61
-68 62
61 -62 68
-69 -61
-69 -68
61 68 69
-70 63
-70 69
-63 -69 70
-71 69
-71 -70
-69 70 71
-72 64
-72 71
-64 -71 72
-73 71
-73 -72
-71 72 73
-74 65
-74 73
-65 -73 74
-75 73
-75 -74
-73 74 75
-76 66
-76 75
-66 -75 76
-77 75
-77 -76
-75 76 77
-78 67
-78 77
-67 -77 78
-79 -15
-79 61
15 -61 79
-80 15
-80 16
-15 -16 80
-81 -79
-81 -80
79 80 81
-82 -15
-82 68
15 -68 82
-83 15
-83 17
-15 -17 83
-84 -82
-84 -83
82 83 84
-85 -15
-85 70
15 -70 85
-86 15
-86 18
-15 -18 86
-87 -85
-87 -86
85 86 87
-88 -15
-88 72
15 -72 88
-89 15
-89 19
-15 -19 89
-90 -88
-90 -89
88 89 90
-91 -15
-91 74
15 -74 91
-92 15
-92 20
-15 -20 92
-93 -91
-93 -92
91 92 93
-94 -15
-94 76
15 -76 94
-95 15
-95 21
-15 -21 95
-96 -94
-96 -95
94 95 96
-97 -15
-97 78
15 -78 97
-98 15
-98 22
-15 -22 98
-99 -97
-99 -98
97 98 99
-100 1
-100 -81
-1 81 100
-101 2
-101 -84
-2 84 101
-102 3
-102 -87
-3 87 102
-103 4
-103 -90
-4 90 103
-104 5
-104 -93
-5 93 104
-105 6
-105 -96
-6 96 105
-106 7
-106 -99
-7 99 106
-107 30
-107 -31
-30 31 107
-108 -32
-108 -33
32 33 108
-109 107
-109 108
-107 -108 109
-110 -30
-110 -31
30 31 110
-111 -32
-111 33
32 -33 111
-112 110
-112 111
-110 -111 112
-113 -109
-113 -112
109 112 113
-114 100
-114 -113
-100 113 114
-115 34
-115 -35
-34 35 115
-116 -36
-116 -37
36 37 116
-117 115
-117 116
-115 -116 117
-118 -34
-118 -35
34 35 118
-119 -36
-119 37
36 -37 119
-120 118
-120 119
-118 -119 120
-121 -117
-121 -120
117 120 121
-122 101
-122 -121
-101 121 122
-123 38
-123 -39
-38 39 123
-124 -40
-124 -41
40 41 124
-125 123
-125 124
-123 -124 125
-126 -38
-126 -39
38 39 126
-127 -40
-127 41
40 -41 127
-128 126
-128 127
-126 -127 128
-129 -125
-129 -128
125 128 129
-130 102
-130 -129
-102 129 130
-131 42
-131 -43
-42 43 131
-132 -44
-132 -45
44 45 132
-133 131
-133 132
-131 -132 133
-134 -42
-134 -43
42 43 134
-135 -44
-135 45
44 -45 135
-136 134
-136 135
-134 -135 136
-137 -133
-137 -136
133 136 137
-138 103
-138 -137
-103 137 138
-139 46
-139 -47
-46 47 139
-140 -48
-140 -49
48 49 140
-141 139
-141 140
-139 -140 141
-142 -46
-142 -47
46 47 142
-143 -48
-143 49
48 -49 143
-144 142
-144 143
-142 -143 144
-145 -141
-145 -144
141 144 145
-146 104
-146 -145
-104 145 146
-147 50
-147 -51
-50 51 147
-148 -52
-148 -53
52 53 148
-149 147
-149 148
-147 -148 149
-150 -50
-150 -51
50 51 150
-151 -52
-151 53
52 -53 151
-152 150
-152 151
-150 -151 152
-153 -149
-153 -152
149 152 153
-154 105
-154 -153
-105 153 154
-155 54
-155 -55
-54 55 155
-156 -56
-156 -57
56 57 156
-157 155
-157 156
-155 -156 157
-158 -54
-158 -55
54 55 158
-159 -56
-159 57
56 -57 159
-160 158
-160 159
-158 -159 160
-161 -157
-161 -160
157 160 161
-162 106
-162 -161
-106 161 162
-163 -114
-163 -122
114 122 163
-164 -130
-164 -138
130 138 164
-165 -146
-165 -154
146 154 165
-166 163
-166 164
-163 -164 166
-167 -162
-167 165
162 -165 167
-168 166
-168 167
-166 -167 168
-169 -30
-169 31
30 -31 169
-170 32
-170 -33
-32 33 170
-171 169
-171 170
-169 -170 171
-172 32
-172 33
-32 -33 172
-173 107
-173 172
-107 -172 173
-174 -171
-174 -173
171 173 174
-175 100
-175 -174
-100 174 175
-176 -34
-176 35
34 -35 176
-177 36
-177 -37
-36 37 177
-178 176
-178 177
-176 -177 178
-179 36
-179 37
-36 -37 179
-180 115
-180 179
-115 -179 180
-181 -178
-181 -180
178 180 181
-182 101
-182 -181
-101 181 182
-183 -38
-183 39
38 -39 183
-184 40
-184 -41
-40 41 184
-185 183
-185 184
-183 -184 185
-186 40
-186 41
-40 -41 186
-187 123
-187 186
-123 -186 187
-188 -185
-188 -187
185 187 188
-189 102
-189 -188
-102 188 189
-190 -42
-190 43
42 -43 190
-191 44
-191 -45
-44 45 191
-192 190
-192 191
-190 -191 192
-193 44
-193 45
-44 -45 193
-194 131
-194 193
-131 -193 194
-195 -192
-195 -194
192 194 195
-196 103
-196 -195
-103 195 196
-197 -46
-197 47
46 -47 197
-198 48
-198 -49
-48 49 198
-199 197
-199 198
-197 -198 199
-200 48
-200 49
-48 -49 200
-201 139
-201 200
-139 -200 201
-202 -199
-202 -201
199 201 202
-203 104
-203 -202
-104 202 203
-204 -50
-204 51
50 -51 204
-205 52
-205 -53
-52 53 205
-206 204
-206 205
-204 -205 206
-207 52
-207 53
-52 -53 207
-208 147
-208 207
-147 -207 208
-209 -206
-209 -208
206 208 209
-210 105
-210 -209
-105 209 210
-211 -54
-211 55
54 -55 211
-212 56
-212 -57
-56 57 212
-213 211
-213 212
-211 -212 213
-214 56
-214 57
-56 -57 214
-215 155
-215 214
-155 -214 215
-216 -213
-216 -215
213 215 216
-217 106
-217 -216
-106 216 217
-218 -175
-218 -182
175 182 218
-219 -189
-219 -196
189 196 219
-220 -203
-220 -210
203 210 220
-221 218
-221 219
-218 -219 221
-222 -217
-222 220
217 -220 222
-223 221
-223 222
-221 -222 223
-224 15
-224 223
-15 -223 224
-225 168
-225 224
-168 -224 225
-226 168
-226 -225
-168 225 226
-227 -23
-227 24
23 -24 227
-228 -23
-228 -227
23 227 228
-229 25
-229 228
-25 -228 229
-230 228
-230 -229
-228 229 230
-231 26
-231 230
-26 -230 231
-232 230
-232 -231
-230 231 232
-233 27
-233 232
-27 -232 233
-234 232
-234 -233
-232 233 234
-235 28
-235 234
-28 -234 235
-236 234
-236 -235
-234 235 236
-237 29
-237 236
-29 -236 237
-238 110
-238 172
-110 -172 238
-239 100
-239 238
-100 -238 239
-240 118
-240 179
-118 -179 240
-241 101
-241 240
-101 -240 241
-242 126
-242 186
-126 -186 242
-243 102
-243 242
-102 -242 243
-244 134
-244 193
-134 -193 244
-245 103
-245 244
-103 -244 245
-246 142
-246 200
-142 -200 246
-247 104
-247 246
-104 -246 247
-248 150
-248 207
-150 -207 248
-249 105
-249 248
-105 -248 249
-250 158
-250 214
-158 -214 250
-251 106
-251 250
-106 -250 251
-252 -239
-252 -241
239 241 252
-253 -243
-253 -245
243 245 253
-254 -247
-254 -249
247 249 254
-255 252
-255 253
-252 -253 255
-256 -251
-256 254
251 -254 256
-257 255
-257 256
-255 -256 257
-258 107
-258 170
-107 -170 258
-259 100
-259 258
-100 -258 259
-260 23
-260 -257
-23 257 260
-261 23
-261 -260
-23 260 261
-262 -259
-262 261
259 -261 262
-263 -259
-263 -262
259 262 263
-264 115
-264 177
-115 -177 264
-265 101
-265 264
-101 -264 265
-266 227
-266 -257
-227 257 266
-267 24
-267 -266
-24 266 267
-268 -265
-268 267
265 -267 268
-269 -265
-269 -268
265 268 269
-270 123
-270 184
-123 -184 270
-271 102
-271 270
-102 -270 271
-272 229
-272 -257
-229 257 272
-273 25
-273 -272
-25 272 273
-274 -271
-274 273
271 -273 274
-275 -271
-275 -274
271 274 275
-276 131
-276 191
-131 -191 276
-277 103
-277 276
-103 -276 277
-278 231
-278 -257
-231 257 278
-279 26
-279 -278
-26 278 279
-280 -277
-280 279
277 -279 280
-281 -277
-281 -280
277 280 281
-282 139
-282 198
-139 -198 282
-283 104
-283 282
-104 -282 283
-284 233
-284 -257
-233 257 284
-285 27
-285 -284
-27 284 285
-286 -283
-286 285
283 -285 286
-287 -283
-287 -286
283 286 287
-288 147
-288 205
-147 -205 288
-289 105
-289 288
-105 -288 289
-290 235
-290 -257
-235 257 290
-291 28
-291 -290
-28 290 291
-292 -289
-292 291
289 -291 292
-293 -289
-293 -292
289 292 293
-294 155
-294 212
-155 -212 294
-295 106
-295 294
-106 -294 295
-296 237
-296 -257
-237 257 296
-297 29
-297 -296
-29 296 297
-298 -295
-298 297
295 -297 298
-299 -295
-299 -298
295 298 299
-300 -23
-300 -24
23 24 300
-301 -25
-301 -26
25 26 301
-302 -27
-302 -28
27 28 302
-303 300
-303 301
-300 -301 303
-304 -29
-304 302
29 -302 304
-305 303
-305 304
-303 -304 305
-306 58
-306 59
-58 -59 306
-307 60
-307 306
-60 -306 307
-308 -31
-308 -110
31 110 308
-309 32
-309 110
-32 -110 309
-310 -32
-310 -308
32 308 310
-311 -309
-311 -310
309 310 311
-312 -8
-312 30
8 -30 312
-313 30
-313 -312
-30 312 313
-314 31
-314 -313
-31 313 314
-315 8
-315 -30
-8 30 315
-316 -31
-316 315
31 -315 316
-317 -169
-317 -316
169 316 317
-318 32
-318 314
-32 -314 318
-319 -32
-319 -317
32 317 319
-320 -318
-320 -319
318 319 320
-321 33
-321 -311
-33 311 321
-322 -33
-322 -320
33 320 322
-323 -321
-323 -322
321 322 323
-324 100
-324 -323
-100 323 324
-325 30
-325 -100
-30 100 325
-326 -324
-326 -325
324 325 326
-327 30
-327 305
-30 -305 327
-328 -31
-328 327
31 -327 328
-329 -169
-329 -328
169 328 329
-330 32
-330 107
-32 -107 330
-331 -32
-331 -329
32 329 331
-332 -330
-332 -331
330 331 332
-333 31
-333 -314
-31 314 333
-334 -30
-334 -307
30 307 334
-335 31
-335 334
-31 -334 335
-336 -107
-336 -335
107 335 336
-337 32
-337 -333
-32 333 337
-338 -32
-338 -336
32 336 338
-339 -337
-339 -338
337 338 339
-340 33
-340 -332
-33 332 340
-341 -33
-341 -339
33 339 341
-342 -340
-342 -341
340 341 342
-343 100
-343 -342
-100 342 343
-344 31
-344 -100
-31 100 344
-345 -343
-345 -344
343 344 345
-346 30
-346 -305
-30 305 346
-347 30
-347 31
-30 -31 347
-348 -31
-348 346
31 -346 348
-349 -347
-349 -348
347 348 349
-350 -31
-350 32
31 -32 350
-351 -32
-351 -349
32 349 351
-352 -350
-352 -351
350 351 352
-353 -30
-353 307
30 -307 353
-354 -30
-354 -353
30 353 354
-355 31
-355 -354
-31 354 355
-356 -32
-356 355
32 -355 356
-357 -337
-357 -356
337 356 357
-358 33
-358 -352
-33 352 358
-359 -33
-359 -357
33 357 359
-360 -358
-360 -359
358 359 360
-361 100
-361 -360
-100 360 361
-362 32
-362 -100
-32 100 362
-363 -361
-363 -362
361 362 363
-364 32
-364 -350
-32 350 364
-365 8
-365 30
-8 -30 365
-366 31
-366 365
-31 -365 366
-367 32
-367 366
-32 -366 367
-368 33
-368 -364
-33 364 368
-369 -33
-369 367
33 -367 369
-370 -368
-370 -369
368 369 370
-371 100
-371 -370
-100 370 371
-372 33
-372 -100
-33 100 372
-373 -371
-373 -372
371 372 373
-374 -35
-374 -118
35 118 374
-375 36
-375 118
-36 -118 375
-376 -36
-376 -374
36 374 376
-377 -375
-377 -376
375 376 377
-378 -9
-378 34
9 -34 378
-379 34
-379 -378
-34 378 379
-380 35
-380 -379
-35 379 380
-381 9
-381 -34
-9 34 381
-382 -35
-382 381
35 -381 382
-383 -176
-383 -382
176 382 383
-384 36
-384 380
-36 -380 384
-385 -36
-385 -383
36 383 385
-386 -384
-386 -385
384 385 386
-387 37
-387 -377
-37 377 387
-388 -37
-388 -386
37 386 388
-389 -387
-389 -388
387 388 389
-390 101
-390 -389
-101 389 390
-391 34
-391 -101
-34 101 391
-392 -390
-392 -391
390 391 392
-393 34
-393 305
-34 -305 393
-394 -35
-394 393
35 -393 394
-395 -176
-395 -394
176 394 395
-396 36
-396 115
-36 -115 396
-397 -36
-397 -395
36 395 397
-398 -396
-398 -397
396 397 398
-399 35
-399 -380
-35 380 399
-400 -34
-400 -307
34 307 400
-401 35
-401 400
-35 -400 401
-402 -115
-402 -401
115 401 402
-403 36
-403 -399
-36 399 403
-404 -36
-404 -402
36 402 404
-405 -403
-405 -404
403 404 405
-406 37
-406 -398
-37 398 406
-407 -37
-407 -405
37 405 407
-408 -406
-408 -407
406 407 408
-409 101
-409 -408
-101 408 409
-410 35
-410 -101
-35 101 410
-411 -409
-411 -410
409 410 411
-412 34
-412 -305
-34 305 412
-413 34
-413 35
-34 -35 413
-414 -35
-414 412
35 -412 414
-415 -413
-415 -414
413 414 415
-416 -35
-416 36
35 -36 416
-417 -36
-417 -415
36 415 417
-418 -416
-418 -417
416 417 418
-419 -34
-419 307
34 -307 419
-420 -34
-420 -419
34 419 420
-421 35
-421 -420
-35 420 421
-422 -36
-422 421
36 -421 422
-423 -403
-423 -422
403 422 423
-424 37
-424 -418
-37 418 424
-425 -37
-425 -423
37 423 425
-426 -424
-426 -425
424 425 426
-427 101
-427 -426
-101 426 427
-428 36
-428 -101
-36 101 428
-429 -427
-429 -428
427 428 429
-430 36
-430 -416
-36 416 430
-431 9
-431 34
-9 -34 431
-432 35
-432 431
-35 -431 432
-433 36
-433 432
-36 -432 433
-434 37
-434 -430
-37 430 434
-435 -37
-435 433
37 -433 435
-436 -434
-436 -435
434 435 436
-437 101
-437 -436
-101 436 437
-438 37
-438 -101
-37 101 438
-439 -437
-439 -438
437 438 439
-440 -39
-440 -126
39 126 440
-441 40
-441 126
-40 -126 441
-442 -40
-442 -440
40 440 442
-443 -441
-443 -442
441 442 443
-444 -10
-444 38
10 -38 444
-445 38
-445 -444
-38 444 445
-446 39
-446 -445
-39 445 446
-447 10
-447 -38
-10 38 447
-448 -39
-448 447
39 -447 448
-449 -183
-449 -448
183 448 449
-450 40
-450 446
-40 -446 450
-451 -40
-451 -449
40 449 451
-452 -450
-452 -451
450 451 452
-453 41
-453 -443
-41 443 453
-454 -41
-454 -452
41 452 454
-455 -453
-455 -454
453 454 455
-456 102
-456 -455
-102 455 456
-457 38
-457 -102
-38 102 457
-458 -456
-458 -457
456 457 458
-459 38
-459 305
-38 -305 459
-460 -39
-460 459
39 -459 460
-461 -183
-461 -460
183 460 461
-462 40
-462 123
-40 -123 462
-463 -40
-463 -461
40 461 463
-464 -462
-464 -463
462 463 464
-465 39
-465 -446
-39 446 465
-466 -38
-466 -307
38 307 466
-467 39
-467 466
-39 -466 467
-468 -123
-468 -467
123 467 468
-469 40
-469 -465
-40 465 469
-470 -40
-470 -468
40 468 470
-471 -469
-471 -470
469 470 471
-472 41
-472 -464
-41 464 472
-473 -41
-473 -471
41 471 473
-474 -472
-474 -473
472 473 474
-475 102
-475 -474
-102 474 475
-476 39
-476 -102
-39 102 476
-477 -475
-477 -476
475 476 477
-478 38
-478 -305
-38 305 478
-479 38
-479 39
-38 -39 479
-480 -39
-480 478
39 -478 480
-481 -479
-481 -480
479 480 481
-482 -39
-482 40
39 -40 482
-483 -40
-483 -481
40 481 483
-484 -482
-484 -483
482 483 484
-485 -38
-485 307
38 -307 485
-486 -38
-486 -485
38 485 486
-487 39
-487 -486
-39 486 487
-488 -40
-488 487
40 -487 488
-489 -469
-489 -488
469 488 489
-490 41
-490 -484
-41 484 490
-491 -41
-491 -489
41 489 491
-492 -490
-492 -491
490 491 492
-493 102
-493 -492
-102 492 493
-494 40
-494 -102
-40 102 494
-495 -493
-495 -494
493 494 495
-496 40
-496 -482
-40 482 496
-497 10
-497 38
-10 -38 497
-498 39
-498 497
-39 -497 498
-499 40
-499 498
-40 -498 499
-500 41
-500 -496
-41 496 500
-501 -41
-501 499
41 -499 501
-502 -500
-502 -501
500 501 502
-503 102
-503 -502
-102 502 503
-504 41
-504 -102
-41 102 504
-505 -503
-505 -504
503 504 505
-506 -43
-506 -134
43 134 506
-507 44
-507 134
-44 -134 507
-508 -44
-508 -506
44 506 508
-509 -507
-509 -508
507 508 509
-510 -11
-510 42
11 -42 510
-511 42
-511 -510
-42 510 511
-512 43
-512 -511
-43 511 512
-513 11
-513 -42
-11 42 513
-514 -43
-514 513
43 -513 514
-515 -190
-515 -514
190 514 515
-516 44
-516 512
-44 -512 516
-517 -44
-517 -515
44 515 517
-518 -516
-518 -517
516 517 518
-519 45
-519 -509
-45 509 519
-520 -45
-520 -518
45 518 520
-521 -519
-521 -520
519 520 521
-522 103
-522 -521
-103 521 522
-523 42
-523 -103
-42 103 523
-524 -522
-524 -523
522 523 524
-525 42
-525 305
-42 -305 525
-526 -43
-526 525
43 -525 526
-527 -190
-527 -526
190 526 527
-528 44
-528 131
-44 -131 528
-529 -44
-529 -527
44 527 529
-530 -528
-530 -529
528 529 530
-531 43
-531 -512
-43 512 531
-532 -42
-532 -307
42 307 532
-533 43
-533 532
-43 -532 533
-534 -131
-534 -533
131 533 534
-535 44
-535 -531
-44 531 535
-536 -44
-536 -534
44 534 536
-537 -535
-537 -536
535 536 537
-538 45
-538 -530
-45 530 538
-539 -45
-539 -537
45 537 539
-540 -538
-540 -539
538 539 540
-541 103
-541 -540
-103 540 541
-542 43
-542 -103
-43 103 542
-543 -541
-543 -542
541 542 543
-544 42
-544 -305
-42 305 544
-545 42
-545 43
-42 -43 545
-546 -43
-546 544
43 -544 546
-547 -545
-547 -546
545 546 547
-548 -43
-548 44
43 -44 548
-549 -44
-549 -547
44 547 549
-550 -548
-550 -549
548 549 550
-551 -42
-551 307
42 -307 551
-552 -42
-552 -551
42 551 552
-553 43
-553 -552
-43 552 553
-554 -44
-554 553
44 -553 554
-555 -535
-555 -554
535 554 555
-556 45
-556 -550
-45 550 556
-557 -45
-557 -555
45 555 557
-558 -556
-558 -557
556 557 558
-559 103
-559 -558
-103 558 559
-560 44
-560 -103
-44 103 560
-561 -559
-561 -560
559 560 561
-562 44
-562 -548
-44 548 562
-563 11
-563 42
-11 -42 563
-564 43
-564 563
-43 -563 564
-565 44
-565 564
-44 -564 565
-566 45
-566 -562
-45 562 566
-567 -45
-567 565
45 -565 567
-568 -566
-568 -567
566 567 568
-569 103
-569 -568
-103 568 569
-570 45
-570 -103
-45 103 570
-571 -569
-571 -570
569 570 571
-572 -47
-572 -142
47 142 572
-573 48
-573 142
-48 -142 573
-574 -48
-574 -572
48 572 574
-575 -573
-575 -574
573 574 575
-576 -12
-576 46
12 -46 576
-577 46
-577 -576
-46 576 577
-578 47
-578 -577
-47 577 578
-579 12
-579 -46
-12 46 579
-580 -47
-580 579
47 -579 580
-581 -197
-581 -580
197 580 581
-582 48
-582 578
-48 -578 582
-583 -48
-583 -581
48 581 583
-584 -582
-584 -583
582 583 584
-585 49
-585 -575
-49 575 585
-586 -49
-586 -584
49 584 586
-587 -585
-587 -586
585 586 587
-588 104
-588 -587
-104 587 588
-589 46
-589 -104
-46 104 589
-590 -588
-590 -589
588 589 590
-591 46
-591 305
-46 -305 591
-592 -47
-592 591
47 -591 592
-593 -197
-593 -592
197 592 593
-594 48
-594 139
-48 -139 594
-595 -48
-595 -593
48 593 595
-596 -594
-596 -595
594 595 596
-597 47
-597 -578
-47 578 597
-598 -46
-598 -307
46 307 598
-599 47
-599 598
-47 -598 599
-600 -139
-600 -599
139 599 600
-601 48
-601 -597
-48 597 601
-602 -48
-602 -600
48 600 602
-603 -601
-603 -602
601 602 603
-604 49
-604 -596
-49 596 604
-605 -49
-605 -603
49 603 605
-606 -604
-606 -605
604 605 606
-607 104
-607 -606
-104 606 607
-608 47
-608 -104
-47 104 608
-609 -607
-609 -608
607 608 609
-610 46
-610 -305
-46 305 610
-611 46
-611 47
-46 -47 611
-612 -47
-612 610
47 -610 612
-613 -611
-613 -612
611 612 613
-614 -47
-614 48
47 -48 614
-615 -48
-615 -613
48 613 615
-616 -614
-616 -615
614 615 616
-617 -46
-617 307
46 -307 617
-618 -46
-618 -617
46 617 618
-619 47
-619 -618
-47 618 619
-620 -48
-620 619
48 -619 620
-621 -601
-621 -620
601 620 621
-622 49
-622 -616
-49 616 622
-623 -49
-623 -621
49 621 623
-624 -622
-624 -623
622 623 624
-625 104
-625 -624
-104 624 625
-626 48
-626 -104
-48 104 626
-627 -625
-627 -626
625 626 627
-628 48
-628 -614
-48 614 628
-629 12
-629 46
-12 -46 629
-630 47
-630 629
-47 -629 630
-631 48
-631 630
-48 -630 631
-632 49
-632 -628
-49 628 632
-633 -49
-633 631
49 -631 633
-634 -632
-634 -633
632 633 634
-635 104
-635 -634
-104 634 635
-636 49
-636 -104
-49 104 636
-637 -635
-637 -636
635 636 637
-638 -51
-638 -150
51 150 638
-639 52
-639 150
-52 -150 639
-640 -52
-640 -638
52 638 640
-641 -639
-641 -640
639 640 641
-642 -13
-642 50
13 -50 642
-643 50
-643 -642
-50 642 643
-644 51
-644 -643
-51 643 644
-645 13
-645 -50
-13 50 645
-646 -51
-646 645
51 -645 646
-647 -204
-647 -646
204 646 647
-648 52
-648 644
-52 -644 648
-649 -52
-649 -647
52 647 649
-650 -648
-650 -649
648 649 650
-651 53
-651 -641
-53 641 651
-652 -53
-652 -650
53 650 652
-653 -651
-653 -652
651 652 653
-654 105
-654 -653
-105 653 654
-655 50
-655 -105
-50 105 655
-656 -654
-656 -655
654 655 656
-657 50
-657 305
-50 -305 657
-658 -51
-658 657
51 -657 658
-659 -204
-659 -658
204 658 659
-660 52
-660 147
-52 -147 660
-661 -52
-661 -659
52 659 661
-662 -660
-662 -661
660 661 662
-663 51
-663 -644
-51 644 663
-664 -50
-664 -307
50 307 664
-665 51
-665 664
-51 -664 665
-666 -147
-666 -665
147 665 666
-667 52
-667 -663
-52 663 667
-668 -52
-668 -666
52 666 668
-669 -667
-669 -668
667 668 669
-670 53
-670 -662
-53 662 670
-671 -53
-671 -669
53 669 671
-672 -670
-672 -671
670 671 672
-673 105
-673 -672
-105 672 673
-674 51
-674 -105
-51 105 674
-675 -673
-675 -674
673 674 675
-676 50
-676 -305
-50 305 676
-677 50
-677 51
-50 -51 677
-678 -51
-678 676
51 -676 678
-679 -677
-679 -678
677 678 679
-680 -51
-680 52
51 -52 680
-681 -52
-681 -679
52 679 681
-682 -680
-682 -681
680 681 682
-683 -50
-683 307
50 -307 683
-684 -50
-684 -683
50 683 684
-685 51
-685 -684
-51 684 685
-686 -52
-686 685
52 -685 686
-687 -667
-687 -686
667 686 687
-688 53
-688 -682
-53 682 688
-689 -53
-689 -687
53 687 689
-690 -688
-690 -689
688 689 690
-691 105
-691 -690
-105 690 691
-692 52
-692 -105
-52 105 692
-693 -691
-693 -692
691 692 693
-694 52
-694 -680
-52 680 694
-695 13
-695 50
-13 -50 695
-696 51
-696 695
-51 -695 696
-697 52
-697 696
-52 -696 697
-698 53
-698 -694
-53 694 698
-699 -53
-699 697
53 -697 699
-700 -698
-700 -699
698 699 700
-701 105
-701 -700
-105 700 701
-702 53
-702 -105
-53 105 702
-703 -701
-703 -702
701 702 703
-704 -55
-704 -158
55 158 704
-705 56
-705 158
-56 -158 705
-706 -56
-706 -704
56 704 706
-707 -705
-707 -706
705 706 707
-708 -14
-708 54
14 -54 708
-709 54
-709 -708
-54 708 709
-710 55
-710 -709
-55 709 710
-711 14
-711 -54
-14 54 711
-712 -55
-712 711
55 -711 712
-713 -211
-713 -712
211 712 713
-714 56
-714 710
-56 -710 714
-715 -56
-715 -713
56 713 715
-716 -714
-716 -715
714 715 716
-717 57
-717 -707
-57 707 717
-718 -57
-718 -716
57 716 718
-719 -717
-719 -718
717 718 719
-720 106
-720 -719
-106 719 720
-721 54
-721 -106
-54 106 721
-722 -720
-722 -721
720 721 722
-723 54
-723 305
-54 -305 723
-724 -55
-724 723
55 -723 724
-725 -211
-725 -724
211 724 725
-726 56
-726 155
-56 -155 726
-727 -56
-727 -725
56 725 727
-728 -726
-728 -727
726 727 728
-729 55
-729 -710
-55 710 729
-730 -54
-730 -307
54 307 730
-731 55
-731 730
-55 -730 731
-732 -155
-732 -731
155 731 732
-733 56
-733 -729
-56 729 733
-734 -56
-734 -732
56 732 734
-735 -733
-735 -734
733 734 735
-736 57
-736 -728
-57 728 736
-737 -57
-737 -735
57 735 737
-738 -736
-738 -737
736 737 738
-739 106
-739 -738
-106 738 739
-740 55
-740 -106
-55 106 740
-741 -739
-741 -740
739 740 741
-742 54
-742 -305
-54 305 742
-743 54
-743 55
-54 -55 743
-744 -55
-744 742
55 -742 744
-745 -743
-745 -744
743 744 745
-746 -55
-746 56
55 -56 746
-747 -56
-747 -745
56 745 747
-748 -746
-748 -747
746 747 748
-749 -54
-749 307
54 -307 749
-750 -54
-750 -749
54 749 750
-751 55
-751 -750
-55 750 751
-752 -56
-752 751
56 -751 752
-753 -733
-753 -752
733 752 753
-754 57
-754 -748
-57 748 754
-755 -57
-755 -753
57 753 755
-756 -754
-756 -755
754 755 756
-757 106
-757 -756
-106 756 757
-758 56
-758 -106
-56 106 758
-759 -757
-759 -758
757 758 759
-760 56
-760 -746
-56 746 760
-761 14
-761 54
-14 -54 761
-762 55
-762 761
-55 -761 762
-763 56
-763 762
-56 -762 763
-764 57
-764 -760
-57 760 764
-765 -57
-765 763
57 -763 765
-766 -764
-766 -765
764 765 766
-767 106
-767 -766
-106 766 767
-768 57
-768 -106
-57 106 768
-769 -767
-769 -768
767 768 769
-770 108
-770 347
-108 -347 770
-771 100
-771 770
-100 -770 771
-772 116
-772 413
-116 -413 772
-773 101
-773 772
-101 -772 773
-774 124
-774 479
-124 -479 774
-775 102
-775 774
-102 -774 775
-776 132
-776 545
-132 -545 776
-777 103
-777 776
-103 -776 777
-778 140
-778 611
-140 -611 778
-779 104
-779 778
-104 -778 779
-780 148
-780 677
-148 -677 780
-781 105
-781 780
-105 -780 781
-782 156
-782 743
-156 -743 782
-783 106
-783 782
-106 -782 783
-784 -771
-784 -773
771 773 784
-785 -775
-785 -777
775 777 785
-786 -779
-786 -781
779 781 786
-787 784
-787 785
-784 -785 787
-788 -783
-788 786
783 -786 788
-789 787
-789 788
-787 -788 789
-790 111
-790 169
-111 -169 790
-791 100
-791 790
-100 -790 791
-792 119
-792 176
-119 -176 792
-793 101
-793 792
-101 -792 793
-794 127
-794 183
-127 -183 794
-795 102
-795 794
-102 -794 795
-796 135
-796 190
-135 -190 796
-797 103
-797 796
-103 -796 797
-798 143
-798 197
-143 -197 798
-799 104
-799 798
-104 -798 799
-800 151
-800 204
-151 -204 800
-801 105
-801 800
-105 -800 801
-802 159
-802 211
-159 -211 802
-803 106
-803 802
-106 -802 803
-804 -791
-804 -793
791 793 804
-805 -795
-805 -797
795 797 805
-806 -799
-806 -801
799 801 806
-807 804
-807 805
-804 -805 807
-808 -803
-808 806
803 -806 808
-809 807
-809 808
-807 -808 809
-810 -58
-810 59
58 -59 810
-811 58
-811 -59
-58 59 811
-812 -810
-812 -811
810 811 812
-813 60
-813 -306
-60 306 813
-814 -60
-814 306
60 -306 814
-815 -813
-815 -814
813 814 815
-816 -58
-816 -59
58 59 816
-817 -306
-817 -816
306 816 817
-818 60
-818 -816
-60 816 818
-819 -60
-819 816
60 -816 819
-820 -818
-820 -819
818 819 820
-821 -58
-821 -809
58 809 821
-822 58
-822 809
-58 -809 822
-823 -821
-823 -822
821 822 823
-824 -58
-824 -789
58 789 824
-825 789
-825 -823
-789 823 825
-826 -824
-826 -825
824 825 826
-827 -809
-827 -817
809 817 827
-828 59
-828 809
-59 -809 828
-829 -827
-829 -828
827 828 829
-830 -789
-830 -812
789 812 830
-831 789
-831 -829
-789 829 831
-832 -830
-832 -831
830 831 832
-833 -809
-833 -820
809 820 833
-834 60
-834 809
-60 -809 834
-835 -833
-835 -834
833 834 835
-836 -789
-836 -815
789 815 836
-837 789
-837 -835
-789 835 837
-838 -836
-838 -837
836 837 838
-839 170
-839 347
-170 -347 839
-840 -23
-840 839
23 -839 840
-841 177
-841 413
-177 -413 841
-842 -24
-842 841
24 -841 842
-843 184
-843 479
-184 -479 843
-844 -25
-844 843
25 -843 844
-845 191
-845 545
-191 -545 845
-846 -26
-846 845
26 -845 846
-847 198
-847 611
-198 -611 847
-848 -27
-848 847
27 -847 848
-849 205
-849 677
-205 -677 849
-850 -28
-850 849
28 -849 850
-851 212
-851 743
-212 -743 851
-852 -29
-852 851
29 -851 852
-853 840
-853 -842
-840 842 853
-854 -840
-854 842
840 -842 854
-855 -853
-855 -854
853 854 855
-856 840
-856 842
-840 -842 856
-857 -844
-857 -855
844 855 857
-858 844
-858 855
-844 -855 858
-859 -857
-859 -858
857 858 859
-860 844
-860 -855
-844 855 860
-861 856
-861 -860
-856 860 861
-862 -856
-862 860
856 -860 862
-863 -861
-863 -862
861 862 863
-864 856
-864 860
-856 -860 864
-865 -846
-865 -859
846 859 865
-866 846
-866 859
-846 -859 866
-867 -865
-867 -866
865 866 867
-868 846
-868 -859
-846 859 868
-869 -864
-869 -867
864 867 869
-870 864
-870 867
-864 -867 870
-871 -869
-871 -870
869 870 871
-872 864
-872 -867
-864 867 872
-873 -868
-873 -872
868 872 873
-874 -863
-874 873
863 -873 874
-875 863
-875 -873
-863 873 875
-876 -874
-876 -875
874 875 876
-877 -863
-877 -873
863 873 877
-878 -848
-878 -871
848 871 878
-879 848
-879 871
-848 -871 879
-880 -878
-880 -879
878 879 880
-881 848
-881 -871
-848 871 881
-882 -876
-882 -881
876 881 882
-883 876
-883 881
-876 -881 883
-884 -882
-884 -883
882 883 884
-885 -876
-885 881
876 -881 885
-886 877
-886 -885
-877 885 886
-887 -877
-887 885
877 -885 887
-888 -886
-888 -887
886 887 888
-889 877
-889 885
-877 -885 889
-890 -850
-890 -880
850 880 890
-891 850
-891 880
-850 -880 891
-892 -890
-892 -891
890 891 892
-893 850
-893 -880
-850 880 893
-894 -889
-894 -892
889 892 894
-895 889
-895 892
-889 -892 895
-896 -894
-896 -895
894 895 896
-897 889
-897 -892
-889 892 897
-898 -893
-898 -897
893 897 898
-899 -884
-899 898
884 -898 899
-900 884
-900 -898
-884 898 900
-901 -899
-901 -900
899 900 901
-902 -884
-902 -898
884 898 902
-903 -888
-903 -902
888 902 903
-904 888
-904 902
-888 -902 904
-905 -903
-905 -904
903 904 905
-906 -888
-906 902
888 -902 906
-907 -852
-907 -896
852 896 907
-908 852
-908 896
-852 -896 908
-909 -907
-909 -908
907 908 909
-910 852
-910 -896
-852 896 910
-911 -906
-911 -909
906 909 911
-912 906
-912 909
-906 -909 912
-913 -911
-913 -912
911 912 913
-914 906
-914 -909
-906 909 914
-915 -910
-915 -914
910 914 915
-916 -901
-916 915
901 -915 916
-917 901
-917 -915
-901 915 917
-918 -916
-918 -917
916 917 918
-919 -901
-919 -915
901 915 919
-920 -905
-920 -919
905 919 920
-921 905
-921 919
-905 -919 921
-922 -920
-922 -921
920 921 922
-923 -905
-923 919
905 -919 923
-924 -305
-924 -307
305 307 924
-925 307
-925 -789
-307 789 925
-926 -809
-926 819
809 -819 926
-927 -924
-927 -926
924 926 927
-928 -925
-928 927
925 -927 928
-928
